SiO2
 1.00000000000000000
     6.6570275987000000    0.0000000000000000    0.0000000000000000
     0.0000000000000000    6.6570275987000000    0.0000000000000000
     0.0000000000000000    0.0000000000000000    6.6570275987000000
   8
Selective dynamics
Cartesian
  0.0000000000000000  0.0000000000000000  0.0000000000000000   T   T   T
  0.0000000000000000  3.3285137994000000  3.3285137994000000   T   T   T
  3.3285137994000000  0.0000000000000000  3.3285137994000000   T   T   T
  3.3285137994000000  3.3285137994000000  0.0000000000000000   T   T   T
  1.6642569002000001  1.6642569002000001  1.6642569002000001   T   T   T
  1.6642569002000001  4.9927706996000003  4.9927706996000003   T   T   T
  4.9927706996000003  1.6642569002000001  4.9927706996000003   T   T   T
  4.9927706996000003  4.9927706996000003  1.6642569002000001   T   T   T
